data/solutions/recovery/degenerate/moderate/flexible/degenerate_moderate_instance6/4.sol
Elapsed time: 0.06
Upper bound: 10525680.0
Planning weighted value: 63979324.0
C[0]=10525680.0
C[1]=10514442.0
C[2]=10478733.0
y[0]=1
y[1]=0
y[2]=0
y[3]=0
y[4]=1
y[5]=1
y[6]=1
y[7]=0
y[8]=0
y[9]=2
y[10]=2
y[11]=0
y[12]=0
y[13]=0
y[14]=2
y[15]=0
y[16]=1
y[17]=1
y[18]=0
y[19]=2
y[20]=2
y[21]=0
y[22]=1
y[23]=0
y[24]=1
y[25]=2
