data/solutions/recovery/degenerate/moderate/flexible/degenerate_moderate_instance6/4.log

Log started (V12.6.3.0) Sat Apr 21 11:06:20 2018

New value for default parallel thread count: 1

Problem '/tmp/tmpN7fnml.pyomo.lp' read.
Read time = 0.00 sec. (0.02 ticks)

Problem name         : /tmp/tmpN7fnml.pyomo.lp
Objective sense      : Minimize
Variables            :      83  [Nneg: 1,  Binary: 78,  General Integer: 4]
Objective nonzeros   :       1
Linear constraints   :      59  [Less: 29,  Equal: 30]
  Nonzeros           :    1466
  RHS nonzeros       :      53

Variables            : Min LB: 0.000000         Max UB: 1.000000       
Objective nonzeros   : Min   : 1.000000         Max   : 1.000000       
Linear constraints   :
  Nonzeros           : Min   : 1.000000         Max   : 2096995.       
  RHS nonzeros       : Min   : 1.000000         Max   : 3.000000       
Tried aggregator 2 times.
MIP Presolve eliminated 26 rows and 1 columns.
Aggregator did 3 substitutions.
Reduced MIP has 30 rows, 79 columns, and 209 nonzeros.
Reduced MIP has 78 binaries, 1 generals, 0 SOSs, and 0 indicators.
Presolve time = 0.00 sec. (0.56 ticks)
Found incumbent of value 1.1197725e+07 after 0.00 sec. (0.71 ticks)
Probing time = 0.00 sec. (0.04 ticks)
Cover probing fixed 0 vars, tightened 4 bounds.
Tried aggregator 1 time.
Reduced MIP has 30 rows, 79 columns, and 209 nonzeros.
Reduced MIP has 78 binaries, 1 generals, 0 SOSs, and 0 indicators.
Presolve time = 0.00 sec. (0.13 ticks)
Probing time = 0.00 sec. (0.03 ticks)
Clique table members: 26.
MIP emphasis: balance optimality and feasibility.
MIP search method: dynamic search.
Parallel mode: none, using 1 thread.
Root relaxation solution time = 0.00 sec. (0.07 ticks)

        Nodes                                         Cuts/
   Node  Left     Objective  IInf  Best Integer    Best Bound    ItCnt     Gap

*     0+    0                       1.11977e+07  2096995.0000            81.27%
      0     0   1.05063e+07     4   1.11977e+07   1.05063e+07        4    6.17%
*     0+    0                       1.11773e+07   1.05063e+07             6.00%
      0     0   1.05063e+07     8   1.11773e+07       Cuts: 3        9    6.00%
*     0+    0                       1.06999e+07   1.05063e+07             1.81%
      0     0   1.05063e+07     8   1.06999e+07     Covers: 1       11    1.81%
      0     2   1.05063e+07     8   1.06999e+07   1.05063e+07       11    1.81%
Elapsed time = 0.00 sec. (2.24 ticks, tree = 0.01 MB, solutions = 2)
*    37    15      integral     0   1.06420e+07   1.05063e+07      110    1.28%
*    60+   13                       1.05437e+07   1.05063e+07             0.35%
*   349    24      integral     0   1.05322e+07   1.05063e+07     1059    0.25%
*   586     0      integral     0   1.05257e+07   1.05257e+07     1747    0.00%

Cover cuts applied:  21
Gomory fractional cuts applied:  1

Root node processing (before b&c):
  Real time             =    0.00 sec. (2.24 ticks)
Sequential b&c:
  Real time             =    0.03 sec. (22.28 ticks)
                          ------------
Total (root+branch&cut) =    0.03 sec. (24.52 ticks)

Solution pool: 6 solutions saved.

MIP - Integer optimal solution:  Objective =  1.0525680000e+07
Solution time =    0.03 sec.  Iterations = 1747  Nodes = 587
Deterministic time = 24.52 ticks  (708.63 ticks/sec)


Incumbent solution written to file '/tmp/tmpWDGYDN.cplex.sol'.
